Maximize
  54913.1391340734 C0(6) + 192600.9128441352 C1(17)
   + 192624.1084975293 C2(17) - 45.2745870439 C3(1)
   + 147014.6168819383 C4(15) + 60991.62812430668 C5(6)
   + 174586.054805301 C6(16) + 178201.0578366778 C7(16)
   - 25.0518701298 C8(1) + 156670.0428365405 C9(14)
   + 109909.5249947517 C10(11) + 45412.28656956603 C11(5)
   + 185442.7555793377 C12(16) - 2.24014753978 C13(1)
   + 151889.1962380162 C14(14) + 64440.72468114007 C15(7)
   + 150623.1451583939 C16(14) + 161436.8325494835 C17(14)
   - 30.4930744432 C18(1) + 121908.0804493652 C19(14)
   + 151809.4492783399 C20(15) + 47782.23939247041 C21(5)
   + 173377.4495476827 C22(15) + 180565.9989693088 C23(15)
   - 29.8612857225 C24(1) + 167418.870041827 C25(14)
   + 168601.0925579211 C26(16) + 47809.57782839156 C27(5)
   + 185378.899610504 C28(15) + 190157.8405774451 C29(15)
   - 31.602986014 C30(1) + 47787.1801420681 C31(4)
   + 166157.1813552408 C32(16) + 82522.25920495389 C33(8)
   + 144731.8108694005 C34(13) + 144739.1376975043 C35(13)
   - 13.0279050119 C36(1) + 138711.6614615018 C37(15)
   + 130383.3582425906 C38(13)
Subject To
 c0: 7 C1(17) + 7 C2(17) + 7 C4(15) + 7 C6(16) + 7 C7(16) + 7 C10(11)
   + 7 C12(16) + 7 C14(14) + 7 C15(7) + 7 C16(14) + 7 C17(14) + 7 C20(15)
   + 7 C22(15) + 7 C23(15) + 7 C26(16) + 7 C28(15) + 7 C29(15) + 7 C32(16)
   + 7 C38(13) <= 7
 c1: 9 C27(5) + 9 C28(15) <= 9
 c2: 15 C1(17) + 15 C2(17) + 15 C4(15) + 15 C6(16) + 15 C7(16) + 15 C12(16)
   + 15 C14(14) + 15 C16(14) + 15 C17(14) + 15 C20(15) + 15 C22(15)
   + 15 C23(15) + 15 C26(16) + 15 C27(5) + 15 C28(15) + 15 C29(15)
   + 15 C32(16) + 15 C34(13) + 15 C35(13) + 15 C38(13) <= 15
 c3: 5 C4(15) + 5 C6(16) + 5 C7(16) + 5 C9(14) + 5 C10(11) + 5 C12(16)
   + 5 C14(14) + 5 C19(14) + 5 C21(5) + 5 C22(15) + 5 C25(14) + 5 C26(16)
   + 5 C32(16) + 5 C37(15) <= 5
 c4: 12 C1(17) + 12 C2(17) + 12 C11(5) + 12 C12(16) + 12 C16(14)
   + 12 C17(14) + 12 C20(15) + 12 C28(15) + 12 C29(15) + 12 C34(13)
   + 12 C35(13) + 12 C38(13) <= 12
 c5: 5 C0(6) + 5 C1(17) + 5 C2(17) + 5 C20(15) + 5 C38(13) <= 5
 c6: 10 C7(16) + 10 C9(14) + 10 C10(11) + 10 C11(5) + 10 C12(16)
   + 10 C14(14) + 10 C19(14) + 10 C20(15) + 10 C25(14) + 10 C37(15) <= 10
 c7: 8 C4(15) + 8 C10(11) + 8 C14(14) + 8 C19(14) + 8 C20(15) + 8 C26(16)
   + 8 C32(16) + 8 C33(8) + 3 C34(13) + 3 C35(13) + 8 C37(15) + 8 C38(13)
   <= 8
 c8: 11 C5(6) + 11 C6(16) + 11 C7(16) + 11 C34(13) + 11 C35(13) <= 11
 c9: 12 C6(16) + 12 C7(16) + 12 C10(11) + 12 C12(16) + 12 C14(14)
   + 12 C16(14) + 12 C17(14) + 12 C20(15) + 12 C22(15) + 12 C23(15)
   + 12 C26(16) + 12 C28(15) + 12 C29(15) + 12 C32(16) + 12 C33(8)
   + 12 C34(13) + 12 C35(13) + 12 C38(13) <= 12
 c10: 8 C1(17) + 8 C2(17) + 8 C5(6) + 8 C6(16) + 8 C7(16) + 8 C16(14)
   + 8 C17(14) + 8 C22(15) + 8 C23(15) + 8 C28(15) + 8 C29(15) <= 8
 c11: 14 C0(6) + 14 C1(17) + 4 C4(15) + C6(16) + C7(16) + 14 C14(14)
   + 14 C17(14) + 14 C20(15) + 14 C31(4) + 4 C32(16) <= 14
 c12: 15 C1(17) + 15 C2(17) + 15 C5(6) + 15 C6(16) + 15 C7(16) + 15 C9(14)
   + 15 C12(16) + 15 C17(14) + 15 C22(15) + 15 C23(15) + 15 C25(14)
   + 15 C28(15) + 15 C29(15) <= 15
 c13: 8 C0(6) + 8 C1(17) + 8 C2(17) + 8 C19(14) + 8 C25(14) + 8 C37(15)
   <= 8
 c14: 11 C4(15) + 11 C12(16) + 11 C14(14) + 11 C20(15) + 11 C21(5)
   + 11 C22(15) + 11 C23(15) + 11 C26(16) + 11 C32(16) <= 11
 c15: 11 C1(17) + 11 C2(17) + 11 C4(15) + 11 C9(14) + 11 C10(11)
   + 11 C12(16) + 11 C14(14) + 11 C19(14) + 11 C22(15) + 11 C23(15)
   + 11 C25(14) + 11 C26(16) + 11 C28(15) + 11 C29(15) + 11 C32(16)
   + 11 C33(8) + 11 C34(13) + 11 C35(13) + 11 C37(15) + 11 C38(13) <= 11
 c16: 5 C11(5) + 5 C12(16) + 4 C19(14) + 5 C37(15) <= 5
 c17: 11 C1(17) + 11 C2(17) + 3 C4(15) + 11 C6(16) + 11 C7(16) + 11 C9(14)
   + 3 C10(11) + 11 C11(5) + 11 C12(16) + 11 C14(14) + 11 C16(14)
   + 3 C17(14) + 11 C19(14) + 3 C20(15) + 11 C23(15) + 11 C26(16)
   + 11 C35(13) + 5 C37(15) <= 11
 c18: 7 C4(15) + 7 C5(6) + 7 C6(16) + 7 C14(14) + 7 C20(15) + 7 C26(16)
   + 7 C32(16) + 7 C38(13) <= 7
 c19: 10 C5(6) + 10 C6(16) <= 10
 c20: 13 C1(17) + 13 C2(17) + 13 C4(15) + 13 C6(16) + 13 C7(16) + 13 C9(14)
   + 13 C10(11) + 13 C15(7) + 13 C16(14) + 13 C17(14) + 13 C22(15)
   + 13 C23(15) + 13 C25(14) + 13 C26(16) + 13 C28(15) + 13 C29(15)
   + 13 C31(4) + 13 C32(16) <= 13
 c21: 10 C14(14) + 10 C21(5) + 10 C22(15) + 10 C26(16) + 10 C28(15)
   + 10 C29(15) + 10 C32(16) <= 10
 c22: 4 C1(17) + 4 C2(17) + 4 C6(16) + 4 C7(16) + 4 C9(14) + 4 C12(16)
   + 4 C26(16) + 10 C27(5) + 10 C28(15) + 10 C29(15) + 9 C32(16)
   + 10 C34(13) + 4 C35(13) + 10 C37(15) + 9 C38(13) <= 10
 c23: 14 C2(17) + 14 C6(16) + 14 C7(16) + 14 C9(14) + 14 C12(16)
   + 14 C16(14) + 14 C21(5) + 12 C22(15) + 12 C23(15) + 14 C25(14)
   + 14 C28(15) + 14 C29(15) <= 14
 c24: 10 C7(16) + 10 C9(14) + 10 C12(16) + 10 C15(7) + 10 C16(14)
   + 10 C17(14) + 10 C19(14) + 10 C22(15) + 10 C23(15) + 10 C25(14)
   + 10 C34(13) + 10 C35(13) + 10 C37(15) <= 10
 c25: 13 C1(17) + 13 C2(17) + 13 C6(16) + 13 C7(16) + 13 C9(14)
   + 13 C12(16) + 13 C22(15) + 13 C23(15) + 13 C25(14) + 13 C28(15)
   + 13 C29(15) + 13 C31(4) + 13 C33(8) + 13 C34(13) + 13 C35(13)
   + 13 C37(15) <= 13
 c26: 5 C20(15) + 6 C27(5) + 6 C28(15) + 6 C37(15) <= 6
 c27: 8 C9(14) + 8 C16(14) + 8 C17(14) + 8 C19(14) + 8 C25(14) + 8 C33(8)
   + 8 C34(13) + 8 C35(13) + 8 C37(15) <= 8
 c28: 9 C0(6) + 9 C1(17) + 9 C2(17) + 9 C29(15) <= 9
 c29: 11 C4(15) + 11 C9(14) + 11 C10(11) + 11 C19(14) + 3 C22(15)
   + 3 C23(15) + 11 C25(14) + 11 C26(16) + 11 C32(16) + 11 C33(8)
   + 11 C34(13) + 11 C35(13) + 11 C37(15) + 11 C38(13) <= 11
 c30: 6 C1(17) + 6 C2(17) + 6 C4(15) + 6 C9(14) + 6 C15(7) + 6 C16(14)
   + 6 C17(14) + 6 C19(14) + 6 C20(15) + 6 C26(16) + 6 C38(13) <= 6
 c31: 6 C14(14) + 6 C15(7) + 6 C16(14) + 6 C19(14) + 6 C37(15) <= 6
 c32: 10 C0(6) + 10 C1(17) + 10 C2(17) + 10 C4(15) + 10 C23(15)
   + 10 C25(14) + 10 C26(16) + 10 C29(15) + 10 C32(16) <= 10
 c33: 12 C4(15) + 12 C10(11) + 12 C15(7) + 4 C16(14) + 12 C17(14)
   + 4 C19(14) + 12 C20(15) + 12 C25(14) <= 12
 c34: 6 C32(16) + 6 C33(8) + 5 C34(13) + 6 C38(13) <= 6
 c35: C0(6) + C1(17) + C2(17) + C3(1) + C4(15) = 1
 c36: C5(6) + C6(16) + C7(16) + C8(1) + C9(14) + C10(11) = 1
 c37: C11(5) + C12(16) + C13(1) + C14(14) = 1
 c38: C15(7) + C16(14) + C17(14) + C18(1) + C19(14) + C20(15) = 1
 c39: C21(5) + C22(15) + C23(15) + C24(1) + C25(14) + C26(16) = 1
 c40: C27(5) + C28(15) + C29(15) + C30(1) + C31(4) + C32(16) = 1
 c41: C33(8) + C34(13) + C35(13) + C36(1) + C37(15) + C38(13) = 1
Bounds
End
